40
    48    83    74    78     6    75    51    45    67    95    57    93     3    25    64    18    13   100    25    19    25     8    69    99    94    90     3    61     6    40    13    15    72     5    62    72    32    86    93    46
     7     6     5     6     1     9    10     1     8     2    10     9     4     9     3     9     5     2     1     3     4     8     6     1     6    10     8     5     9     6     8     8     4     1    10     5     8     7     3    10
   832   907   759   997   708   929   831  1001   763   891   871   686   838   624   690   635   630   997   724   707   870   961   874   637   648   881   777   836   620   803   680   955   739   945   892   687   624   774   636   765
